0 45 49
1 39 48
2 42 49
3 38 46
4 47 47
5 29 44
6 44 44
7 44 44
8 40 41
9 35 38
10 36 40
11 37 40
12 38 41
13 38 40
14 31 39
15 32 38
16 25 34
17 34 34
18 26 32
19 34 35
20 29 31
21 24 31
22 29 30
23 29 30
24 19 26
25 24 25
26 4 24
27 23 24
28 19 22
29 16 20
30 18 21
31 15 18
32 15 16
33 18 19
34 15 20
35 14 17
36 18 18
37 16 16
38 14 14
39 16 16
40 13 14
41 10 16
42 14 16
43 12 15
44 14 14
45 13 14
46 12 12
47 10 10
48 6 11
49 10 10
50 6 7
51 7 8
52 7 7
53 8 8
54 9 10
55 4 7
56 8 8
57 7 7
58 5 5
59 2 2
60 1 1
61 1 1

